c Random Network
p max    10      20
n         1  s
n        10  t
a       7       9      22
a       4       1      50
a       9       2      17
a       9       3      18
a       3       1      30
a       8       2      21
a       9       1      30
a       1       2      21
a       6       2      41
a       2       7      29
a      10       2      15
a       2       1       9
a       5       6      26
a      10       7       2
a       8       5      25
a       2       4      11
a       6       8      28
a       9       7      41
a       8      10      41
a       1       7      40
